************************************************************************
file with basedata            : mm27_.bas
initial value random generator: 1443287569
************************************************************************
projects                      :  1
jobs (incl. supersource/sink ):  12
horizon                       :  81
RESOURCES
  - renewable                 :  2   R
  - nonrenewable              :  2   N
  - doubly constrained        :  0   D
************************************************************************
PROJECT INFORMATION:
pronr.  #jobs rel.date duedate tardcost  MPM-Time
    1     10      0       15        5       15
************************************************************************
PRECEDENCE RELATIONS:
jobnr.    #modes  #successors   successors
   1        1          3           2   3   4
   2        3          1           8
   3        3          2           9  10
   4        3          3           5   6   9
   5        3          1           7
   6        3          2           8  11
   7        3          2           8  11
   8        3          1          10
   9        3          1          12
  10        3          1          12
  11        3          1          12
  12        1          0        
************************************************************************
REQUESTS/DURATIONS:
jobnr. mode duration  R 1  R 2  N 1  N 2
------------------------------------------------------------------------
  1      1     0       0    0    0    0
  2      1     3       0    8    3    0
         2     6       0    3    0    2
         3     9       4    0    0    2
  3      1     4      10    0    0    9
         2     4       9    0    5    0
         3    10       0    6    4    0
  4      1     4       0    2    0    4
         2     5       0    1    8    0
         3    10       3    0    0    1
  5      1     2       7    0    7    0
         2     5       0    7    0    8
         3     5       5    0    2    0
  6      1     4       8    0   10    0
         2     5       5    0   10    0
         3     6       0    5    0    6
  7      1     5       0    7    7    0
         2     5       7    0    7    0
         3     5       0    9    0    4
  8      1     3      10    0    7    0
         2     7       8    0    6    0
         3     8       8    0    5    0
  9      1     3       4    0    0    8
         2     5       0    4    0    6
         3     8       3    0    0    2
 10      1     1       6    0    7    0
         2     7       5    0    5    0
         3    10       0    4    3    0
 11      1     4       9    0    5    0
         2     7       0    8    4    0
         3    10       0    7    0    3
 12      1     0       0    0    0    0
************************************************************************
RESOURCEAVAILABILITIES:
  R 1  R 2  N 1  N 2
   19   20   44   31
************************************************************************
MAXIMAL LAGS:
from  to  type  delay
    1   12   ES      0
    1    2   ES      0
    2   12   ES      0
    1    3   ES      0
    3   12   ES      0
    1    4   ES      0
    4   12   ES      0
    1    5   ES      0
    5   12   ES      0
    1    6   ES      0
    6   12   ES      0
    1    7   ES      0
    7   12   ES      0
    1    8   ES      0
    8   12   ES      0
    1    9   ES      0
    9   12   ES      0
    1   10   ES      0
   10   12   ES      0
    1   11   ES      0
   11   12   ES      0
    1   12   ES      0
    2    8   SS    -11
    2    8   SE     12
    2    8   ES     -2
    2    8   EE     -1
    3    9   SS      1
    3    9   SE      1
    3    9   ES     -9
    3    9   EE     12
    3   10   SS     -5
    3   10   SE     11
    3   10   ES      8
    3   10   EE      7
    4    5   SS    -12
    4    5   SE      8
    4    5   ES     12
    4    5   EE      8
    4    6   SS      0
    4    6   SE    -11
    4    6   ES     -3
    4    6   EE      4
    4    9   SS    -11
    4    9   SE     -2
    4    9   ES      5
    4    9   EE      6
    5    7   SS     -8
    5    7   SE     -2
    5    7   ES      4
    5    7   EE     10
    6    8   SS     -5
    6    8   SE     -8
    6    8   ES    -11
    6    8   EE      9
    6   11   SS     11
    6   11   SE      0
    6   11   ES      2
    6   11   EE     12
    7    8   SS      7
    7    8   SE      6
    7    8   ES      4
    7    8   EE    -10
    7   11   SS     -5
    7   11   SE      1
    7   11   ES     -3
    7   11   EE      0
    8   10   SS     -8
    8   10   SE     -8
    8   10   ES     -2
    8   10   EE    -10
************************************************************************
